
******************************************************************************
This program contains Ipopt, a library for large-scale nonlinear optimization.
 Ipopt is released as open source code under the Eclipse Public License (EPL).
         For more information visit http://projects.coin-or.org/Ipopt

This version of Ipopt was compiled from source code available at
    https://github.com/IDAES/Ipopt as part of the Institute for the Design of
    Advanced Energy Systems Process Systems Engineering Framework (IDAES PSE
    Framework) Copyright (c) 2018-2019. See https://github.com/IDAES/idaes-pse.

This version of Ipopt was compiled using HSL, a collection of Fortran codes
    for large-scale scientific computation.  All technical papers, sales and
    publicity material resulting from use of the HSL codes within IPOPT must
    contain the following acknowledgement:
        HSL, a collection of Fortran codes for large-scale scientific
        computation. See http://www.hsl.rl.ac.uk.
******************************************************************************

This is Ipopt version 3.13.2, running with linear solver ma27.

Number of nonzeros in equality constraint Jacobian...:      808
Number of nonzeros in inequality constraint Jacobian.:        0
Number of nonzeros in Lagrangian Hessian.............:      702

Total number of variables............................:      351
                     variables with only lower bounds:      108
                variables with lower and upper bounds:      189
                     variables with only upper bounds:        0
Total number of equality constraints.................:      350
Total number of inequality constraints...............:        0
        inequality constraints with only lower bounds:        0
   inequality constraints with lower and upper bounds:        0
        inequality constraints with only upper bounds:        0

iter    objective    inf_pr   inf_du lg(mu)  ||d||  lg(rg) alpha_du alpha_pr  ls
   0  0.0000000e+00 6.87e-01 2.44e-15  -1.0 0.00e+00    -  0.00e+00 0.00e+00   0
   1  1.0836886e+00 3.95e-01 2.32e+05  -1.0 1.27e+05    -  4.77e-01 5.31e-01h  1
   2  1.1144010e+00 3.88e-01 2.27e+05  -1.0 5.76e+04    -  8.18e-01 1.62e-02h  1
   3  1.4569336e+00 3.48e-01 2.05e+05  -1.0 2.60e+05    -  7.51e-01 1.01e-01h  1
   4  2.1269418e+01 5.25e-02 5.96e+03  -1.0 2.41e+05    -  7.70e-01 9.90e-01h  1
   5  2.6609066e+01 1.67e-03 8.00e+02  -1.0 3.55e+04    -  9.61e-01 9.90e-01h  1
   6  2.6755076e+01 1.81e-05 2.61e+01  -1.0 9.26e+02    -  9.90e-01 9.90e-01h  1
   7  2.6843328e+01 2.55e-05 5.86e+02  -1.0 5.11e+02    -  9.90e-01 9.90e-01h  1
   8  2.6798621e+01 2.21e-05 4.10e+07  -2.5 6.46e+02    -  9.97e-01 3.96e-01f  2
   9  2.6756289e+01 6.03e-06 4.35e+05  -2.5 2.43e+02    -  1.00e+00 9.97e-01h  1
iter    objective    inf_pr   inf_du lg(mu)  ||d||  lg(rg) alpha_du alpha_pr  ls
  10  2.6756279e+01 1.71e-08 1.13e+08  -2.5 6.03e-02    -  1.00e+00 9.97e-01h  1
In iteration 10, 27 Slacks too small, adjusting variable bounds
  11  2.6756279e+01 4.82e-11 3.99e+10  -2.5 2.55e-04    -  1.00e+00 9.97e-01h  1
  12  2.6756279e+01 1.46e-11 8.62e-04  -2.5 7.19e-07    -  1.00e+00 1.00e+00h  1
  13  2.6756190e+01 2.78e-11 3.90e+10  -9.0 1.64e+01    -  1.00e+00 3.10e-02f  6
  14  2.6753430e+01 1.87e-11 4.97e+04  -9.0 1.58e+01    -  1.00e+00 1.00e+00F  1
  15  2.6753430e+01 1.41e-11 2.91e-11  -9.0 6.20e-06    -  1.00e+00 1.00e+00h  1

Number of Iterations....: 15

                                   (scaled)                 (unscaled)
Objective...............:   2.6753430471656532e+01    2.6753430471656532e+01
Dual infeasibility......:   2.9103830456733704e-11    2.9103830456733704e-11
Constraint violation....:   1.4085177468814436e-11    1.4085177468814436e-11
Complementarity.........:   9.0909164898440617e-10    9.0909164898440617e-10
Overall NLP error.......:   1.2688937337649157e-10    9.0909164898440617e-10


Number of objective function evaluations             = 27
Number of objective gradient evaluations             = 16
Number of equality constraint evaluations            = 27
Number of inequality constraint evaluations          = 0
Number of equality constraint Jacobian evaluations   = 16
Number of inequality constraint Jacobian evaluations = 0
Number of Lagrangian Hessian evaluations             = 15
Total CPU secs in IPOPT (w/o function evaluations)   =      0.034
Total CPU secs in NLP function evaluations           =      0.359

EXIT: Optimal Solution Found.
